DIMACS_lns/graph-1000-696.col
p edge 1000 1849
e 1 712
e 1 620
e 1 126
e 1 869
e 1 297
e 1 153
e 2 424
e 2 72
e 2 83
e 4 16
e 4 871
e 4 72
e 4 164
e 4 438
e 4 372
e 6 361
e 6 475
e 6 402
e 6 376
e 11 260
e 11 841
e 11 428
e 11 264
e 11 729
e 11 919
e 12 257
e 12 308
e 12 689
e 12 34
e 12 618
e 12 355
e 13 401
e 13 964
e 13 793
e 13 817
e 13 325
e 13 913
e 15 142
e 15 524
e 15 631
e 16 111
e 16 518
e 16 404
e 16 209
e 16 405
e 17 165
e 17 361
e 17 598
e 17 65
e 18 758
e 18 45
e 18 590
e 19 172
e 19 256
e 19 22
e 21 206
e 21 417
e 21 293
e 21 938
e 22 555
e 22 128
e 22 686
e 22 965
e 23 705
e 23 52
e 23 474
e 23 418
e 24 793
e 24 705
e 24 501
e 25 161
e 25 833
e 25 785
e 28 640
e 28 992
e 28 791
e 29 112
e 29 198
e 29 152
e 32 150
e 32 37
e 32 919
e 32 806
e 32 876
e 33 357
e 33 424
e 33 697
e 34 260
e 34 36
e 34 225
e 34 311
e 34 159
e 35 476
e 35 579
e 35 52
e 35 338
e 36 384
e 36 604
e 36 511
e 36 424
e 36 731
e 36 256
e 36 584
e 37 513
e 37 337
e 37 976
e 37 191
e 38 532
e 38 584
e 38 704
e 38 45
e 39 826
e 39 349
e 39 251
e 39 725
e 39 158
e 39 939
e 40 593
e 40 249
e 40 69
e 40 409
e 40 506
e 40 833
e 40 820
e 41 555
e 41 889
e 41 60
e 42 749
e 42 492
e 42 988
e 42 865
e 42 747
e 42 765
e 42 200
e 45 487
e 45 166
e 45 964
e 45 732
e 45 60
e 45 530
e 46 438
e 46 158
e 46 191
e 46 896
e 46 76
e 47 355
e 47 302
e 47 226
e 47 615
e 47 416
e 49 102
e 49 485
e 49 831
e 49 285
e 51 936
e 51 511
e 51 968
e 52 122
e 52 645
e 53 362
e 53 690
e 53 643
e 53 649
e 53 391
e 54 650
e 54 620
e 54 103
e 54 539
e 54 182
e 54 540
e 54 476
e 56 217
e 56 134
e 56 477
e 57 527
e 57 766
e 57 505
e 57 824
e 58 718
e 58 818
e 58 372
e 58 841
e 59 842
e 59 884
e 59 96
e 60 150
e 60 221
e 60 863
e 64 560
e 64 892
e 64 130
e 64 955
e 65 613
e 65 722
e 65 392
e 65 841
e 66 912
e 66 839
e 66 685
e 66 780
e 67 116
e 67 268
e 67 744
e 67 550
e 67 621
e 67 412
e 67 482
e 68 549
e 68 267
e 68 706
e 68 610
e 68 325
e 68 263
e 68 925
e 68 555
e 68 875
e 69 844
e 69 930
e 69 581
e 69 151
e 70 871
e 70 82
e 70 207
e 70 244
e 70 676
e 70 238
e 70 459
e 71 991
e 71 772
e 71 949
e 71 788
e 72 820
e 72 79
e 72 520
e 73 530
e 73 804
e 73 654
e 73 717
e 73 118
e 74 156
e 74 438
e 74 701
e 74 193
e 76 353
e 76 305
e 76 245
e 77 606
e 77 716
e 77 610
e 77 812
e 78 453
e 78 396
e 78 397
e 78 510
e 79 541
e 79 495
e 79 181
e 79 660
e 79 129
e 79 912
e 81 223
e 81 800
e 81 209
e 81 719
e 81 772
e 81 679
e 82 311
e 82 686
e 82 767
e 82 728
e 82 489
e 83 521
e 83 976
e 83 988
e 83 980
e 83 854
e 83 480
e 83 489
e 83 700
e 84 179
e 84 521
e 84 633
e 85 318
e 85 975
e 85 643
e 85 608
e 87 378
e 87 143
e 87 648
e 87 590
e 87 126
e 87 236
e 88 555
e 88 224
e 88 299
e 88 629
e 89 855
e 89 173
e 89 877
e 89 223
e 92 658
e 92 592
e 92 236
e 92 746
e 93 894
e 93 169
e 93 965
e 93 553
e 94 615
e 94 952
e 94 851
e 94 592
e 94 894
e 95 905
e 95 426
e 95 378
e 95 895
e 95 379
e 95 343
e 95 661
e 95 516
e 95 118
e 96 626
e 96 548
e 96 765
e 97 596
e 97 392
e 97 347
e 97 370
e 99 703
e 99 630
e 99 724
e 101 474
e 101 207
e 101 875
e 101 240
e 101 525
e 101 167
e 102 311
e 102 606
e 102 231
e 103 795
e 103 799
e 103 516
e 103 691
e 103 114
e 103 627
e 104 625
e 104 251
e 104 875
e 104 329
e 106 607
e 106 193
e 106 413
e 106 741
e 106 391
e 106 848
e 106 350
e 108 314
e 108 944
e 108 725
e 109 798
e 109 586
e 109 813
e 109 368
e 109 112
e 109 357
e 110 471
e 110 762
e 110 241
e 110 695
e 110 433
e 111 395
e 111 987
e 111 403
e 111 314
e 111 179
e 112 787
e 112 326
e 112 644
e 112 418
e 114 854
e 114 236
e 114 706
e 115 917
e 115 767
e 115 670
e 115 826
e 115 145
e 115 213
e 115 982
e 115 525
e 116 858
e 116 191
e 116 416
e 116 180
e 116 156
e 117 385
e 117 490
e 117 163
e 118 328
e 118 244
e 119 823
e 119 374
e 119 626
e 119 607
e 119 853
e 120 713
e 120 288
e 120 378
e 120 537
e 120 401
e 120 457
e 120 556
e 120 335
e 120 153
e 121 518
e 121 714
e 121 435
e 121 183
e 121 335
e 122 919
e 122 550
e 122 482
e 122 252
e 122 220
e 124 656
e 124 834
e 124 250
e 124 412
e 124 293
e 124 179
e 124 640
e 125 865
e 125 814
e 125 741
e 125 143
e 125 949
e 125 198
e 125 890
e 126 950
e 126 212
e 126 726
e 126 656
e 127 201
e 127 913
e 127 921
e 127 894
e 127 501
e 127 209
e 128 755
e 128 235
e 128 549
e 129 167
e 129 782
e 129 660
e 129 383
e 130 191
e 130 799
e 130 328
e 132 868
e 132 944
e 132 210
e 132 769
e 134 488
e 134 493
e 134 806
e 134 910
e 134 987
e 137 842
e 137 895
e 137 512
e 137 459
e 138 935
e 138 343
e 138 874
e 138 650
e 140 865
e 140 740
e 140 478
e 140 313
e 141 737
e 141 512
e 141 771
e 141 654
e 142 692
e 142 401
e 142 988
e 142 937
e 142 833
e 142 839
e 142 568
e 142 252
e 143 513
e 143 372
e 144 961
e 144 608
e 144 897
e 144 308
e 145 927
e 145 835
e 145 936
e 150 589
e 150 709
e 150 252
e 151 971
e 151 591
e 151 574
e 151 170
e 151 898
e 152 967
e 152 971
e 152 788
e 152 403
e 152 982
e 153 310
e 153 307
e 153 587
e 153 292
e 153 345
e 153 369
e 153 461
e 155 522
e 155 362
e 155 807
e 156 733
e 156 971
e 156 851
e 158 371
e 158 287
e 158 791
e 159 591
e 159 199
e 159 768
e 159 938
e 160 627
e 160 412
e 160 438
e 160 333
e 160 403
e 161 401
e 161 634
e 161 915
e 161 224
e 162 435
e 162 470
e 162 798
e 162 917
e 162 431
e 162 442
e 162 263
e 163 211
e 163 412
e 163 550
e 164 994
e 164 585
e 164 504
e 165 517
e 165 863
e 165 494
e 166 892
e 166 577
e 167 858
e 167 444
e 167 312
e 167 478
e 167 738
e 167 678
e 167 970
e 167 530
e 169 690
e 169 835
e 169 787
e 169 782
e 169 984
e 169 555
e 170 511
e 170 295
e 171 272
e 171 471
e 171 953
e 171 960
e 172 532
e 172 703
e 172 938
e 172 951
e 172 294
e 173 834
e 173 944
e 174 940
e 174 396
e 174 860
e 174 850
e 175 769
e 175 899
e 175 856
e 175 365
e 179 180
e 179 456
e 180 250
e 181 790
e 181 436
e 181 453
e 181 897
e 181 591
e 182 220
e 182 988
e 182 473
e 182 969
e 183 556
e 183 210
e 185 818
e 185 510
e 185 572
e 185 480
e 186 359
e 186 808
e 186 536
e 186 735
e 186 653
e 187 394
e 187 308
e 187 500
e 187 762
e 187 483
e 187 236
e 188 810
e 188 927
e 188 785
e 191 312
e 191 919
e 191 295
e 192 765
e 192 989
e 192 999
e 193 752
e 193 356
e 193 308
e 193 843
e 193 816
e 194 945
e 194 337
e 194 753
e 196 394
e 196 490
e 196 898
e 196 913
e 196 640
e 196 313
e 196 228
e 197 569
e 197 487
e 197 458
e 197 982
e 198 921
e 199 485
e 199 706
e 199 303
e 200 354
e 200 414
e 200 769
e 200 801
e 201 216
e 201 683
e 206 295
e 206 813
e 207 866
e 209 717
e 209 755
e 210 876
e 210 441
e 210 718
e 210 777
e 211 701
e 211 997
e 212 938
e 212 564
e 212 722
e 213 658
e 213 569
e 213 936
e 213 998
e 216 954
e 216 848
e 216 378
e 217 235
e 217 333
e 217 759
e 218 504
e 218 776
e 218 751
e 219 263
e 219 321
e 219 493
e 219 893
e 219 554
e 219 514
e 219 384
e 220 661
e 220 832
e 220 625
e 220 1000
e 221 384
e 221 797
e 221 336
e 221 578
e 222 329
e 222 305
e 222 311
e 222 433
e 222 775
e 223 356
e 223 434
e 223 670
e 224 653
e 224 670
e 224 900
e 225 715
e 225 497
e 225 691
e 225 633
e 225 262
e 226 921
e 226 944
e 226 368
e 226 633
e 227 898
e 227 438
e 227 369
e 227 787
e 227 360
e 228 819
e 228 648
e 228 785
e 228 546
e 228 941
e 229 295
e 229 851
e 229 337
e 230 575
e 230 294
e 230 372
e 230 569
e 231 350
e 231 277
e 231 851
e 234 380
e 234 931
e 234 461
e 234 926
e 234 361
e 234 841
e 235 488
e 235 244
e 235 742
e 236 357
e 236 738
e 236 430
e 236 815
e 238 621
e 238 292
e 239 941
e 239 954
e 239 621
e 239 434
e 240 954
e 240 512
e 240 505
e 240 347
e 241 529
e 241 662
e 241 366
e 241 676
e 242 714
e 242 626
e 242 454
e 242 654
e 243 868
e 243 882
e 243 260
e 243 334
e 243 736
e 243 956
e 244 774
e 244 616
e 245 713
e 245 515
e 245 339
e 246 691
e 246 384
e 246 842
e 246 326
e 247 862
e 247 480
e 247 360
e 247 363
e 247 940
e 247 967
e 248 679
e 248 417
e 248 676
e 249 618
e 249 770
e 249 376
e 249 772
e 250 853
e 250 954
e 250 503
e 250 607
e 251 941
e 251 279
e 251 535
e 252 857
e 252 781
e 252 602
e 252 945
e 256 391
e 256 293
e 256 329
e 256 416
e 256 514
e 257 432
e 257 329
e 257 444
e 257 697
e 257 864
e 258 822
e 258 803
e 258 421
e 259 681
e 259 572
e 259 991
e 259 600
e 260 603
e 260 643
e 260 295
e 261 566
e 261 357
e 261 511
e 261 453
e 262 733
e 262 456
e 262 409
e 263 408
e 263 976
e 264 309
e 264 511
e 264 959
e 264 932
e 265 536
e 265 554
e 265 738
e 265 272
e 265 347
e 265 849
e 267 325
e 267 850
e 268 751
e 268 897
e 268 803
e 268 436
e 271 840
e 271 735
e 271 374
e 271 833
e 271 716
e 271 493
e 272 941
e 272 752
e 274 691
e 274 774
e 274 424
e 274 362
e 274 598
e 275 773
e 275 292
e 275 345
e 275 864
e 276 630
e 276 863
e 276 662
e 277 653
e 277 561
e 279 554
e 279 498
e 279 772
e 279 383
e 279 363
e 280 633
e 280 685
e 280 972
e 280 627
e 280 350
e 280 848
e 282 889
e 282 422
e 282 832
e 282 297
e 285 564
e 285 471
e 286 405
e 286 530
e 286 684
e 286 795
e 286 785
e 287 956
e 287 654
e 287 919
e 287 893
e 287 363
e 288 305
e 288 718
e 288 972
e 289 561
e 289 663
e 289 706
e 290 831
e 290 634
e 290 808
e 290 510
e 290 333
e 290 697
e 290 870
e 292 763
e 292 814
e 292 955
e 292 380
e 293 973
e 293 669
e 294 660
e 294 697
e 295 988
e 295 537
e 296 629
e 296 701
e 296 953
e 297 473
e 297 333
e 297 600
e 297 669
e 299 777
e 299 951
e 299 690
e 300 770
e 300 353
e 300 553
e 301 410
e 301 428
e 301 662
e 301 927
e 302 705
e 302 766
e 303 396
e 303 646
e 303 730
e 303 494
e 303 843
e 305 732
e 305 537
e 307 753
e 307 972
e 308 438
e 308 945
e 308 684
e 308 409
e 308 513
e 308 983
e 308 591
e 309 662
e 309 800
e 310 995
e 310 614
e 310 1000
e 310 895
e 311 915
e 312 801
e 312 840
e 312 898
e 313 383
e 313 781
e 314 592
e 314 950
e 314 827
e 315 710
e 315 681
e 315 679
e 316 975
e 316 686
e 316 700
e 316 875
e 316 604
e 316 685
e 318 466
e 318 945
e 318 841
e 319 349
e 319 907
e 319 446
e 321 630
e 321 683
e 322 922
e 322 678
e 322 574
e 325 598
e 325 398
e 325 835
e 326 640
e 327 402
e 327 869
e 327 468
e 327 766
e 328 710
e 329 973
e 329 813
e 329 461
e 329 624
e 329 598
e 330 986
e 330 421
e 330 880
e 331 456
e 331 831
e 331 616
e 333 890
e 333 767
e 333 664
e 333 418
e 333 623
e 334 716
e 334 923
e 334 570
e 335 374
e 335 658
e 336 402
e 336 992
e 336 869
e 336 454
e 336 980
e 336 537
e 336 660
e 336 821
e 337 900
e 337 815
e 338 993
e 338 767
e 339 623
e 339 972
e 340 518
e 340 879
e 340 990
e 340 746
e 340 582
e 340 962
e 341 768
e 341 943
e 341 629
e 341 797
e 343 815
e 343 629
e 343 504
e 345 841
e 346 382
e 346 588
e 346 923
e 346 751
e 346 409
e 346 384
e 347 369
e 349 489
e 349 767
e 349 875
e 349 366
e 350 394
e 350 403
e 350 969
e 353 698
e 353 490
e 354 490
e 354 408
e 355 712
e 355 937
e 355 697
e 356 670
e 356 524
e 356 587
e 357 852
e 357 636
e 357 495
e 357 469
e 357 776
e 359 645
e 359 884
e 359 515
e 359 729
e 359 566
e 360 780
e 360 909
e 360 408
e 360 999
e 360 868
e 361 446
e 361 664
e 362 793
e 362 614
e 362 523
e 363 755
e 363 992
e 365 488
e 365 453
e 365 458
e 366 576
e 366 520
e 366 368
e 366 988
e 366 781
e 368 471
e 368 977
e 369 926
e 370 404
e 370 969
e 371 546
e 371 474
e 372 753
e 372 761
e 372 553
e 374 549
e 374 933
e 374 924
e 376 469
e 377 408
e 377 417
e 377 432
e 379 743
e 379 982
e 379 550
e 380 504
e 380 671
e 380 666
e 382 977
e 382 469
e 382 991
e 383 939
e 383 509
e 384 968
e 384 753
e 384 847
e 385 732
e 385 630
e 386 515
e 386 988
e 386 965
e 391 776
e 391 695
e 391 989
e 392 834
e 392 474
e 393 593
e 393 667
e 393 895
e 394 818
e 395 996
e 395 766
e 395 761
e 396 987
e 397 402
e 397 797
e 398 980
e 398 703
e 398 449
e 401 975
e 401 620
e 401 881
e 401 735
e 401 663
e 401 775
e 402 848
e 403 917
e 403 685
e 403 770
e 403 423
e 403 676
e 404 582
e 404 890
e 404 464
e 405 850
e 405 720
e 405 705
e 408 817
e 409 464
e 409 879
e 409 606
e 410 976
e 410 446
e 412 999
e 412 871
e 413 863
e 413 961
e 414 874
e 414 955
e 416 465
e 416 431
e 416 912
e 416 488
e 416 941
e 417 808
e 417 832
e 417 709
e 418 682
e 418 476
e 421 432
e 421 496
e 421 678
e 421 450
e 421 575
e 421 842
e 422 680
e 422 575
e 422 930
e 422 686
e 423 660
e 423 859
e 423 646
e 424 940
e 424 454
e 424 950
e 425 859
e 425 470
e 425 757
e 426 675
e 426 763
e 428 930
e 428 712
e 428 940
e 430 889
e 430 459
e 431 947
e 433 744
e 433 790
e 434 476
e 434 872
e 435 564
e 435 835
e 436 478
e 436 471
e 436 546
e 436 827
e 438 804
e 438 858
e 438 921
e 438 850
e 441 692
e 441 529
e 442 847
e 442 907
e 442 943
e 442 766
e 442 991
e 442 950
e 444 891
e 444 648
e 446 990
e 446 755
e 449 870
e 449 832
e 450 627
e 450 797
e 450 541
e 452 905
e 452 668
e 452 772
e 453 746
e 454 738
e 456 621
e 456 704
e 457 976
e 457 671
e 457 819
e 458 860
e 459 819
e 461 765
e 464 780
e 464 866
e 465 900
e 465 735
e 465 818
e 466 588
e 466 594
e 467 982
e 467 698
e 467 560
e 468 703
e 468 710
e 470 806
e 471 905
e 471 943
e 471 911
e 472 480
e 472 952
e 472 570
e 473 680
e 473 893
e 474 987
e 475 766
e 475 880
e 475 666
e 475 586
e 475 993
e 476 743
e 476 777
e 476 800
e 476 477
e 477 765
e 477 644
e 478 724
e 478 835
e 479 596
e 479 500
e 479 720
e 479 910
e 480 951
e 480 986
e 482 693
e 482 808
e 482 925
e 482 795
e 483 757
e 483 569
e 485 816
e 485 997
e 487 523
e 487 851
e 487 504
e 487 531
e 488 763
e 489 614
e 490 935
e 490 572
e 492 682
e 492 810
e 492 820
e 492 680
e 492 790
e 492 623
e 492 712
e 493 613
e 494 575
e 494 787
e 494 587
e 495 957
e 496 574
e 496 937
e 497 965
e 497 935
e 498 723
e 498 613
e 498 750
e 498 904
e 500 621
e 501 807
e 503 634
e 503 772
e 505 978
e 506 574
e 506 856
e 506 940
e 506 607
e 509 658
e 509 750
e 509 816
e 509 806
e 511 832
e 511 798
e 513 914
e 513 635
e 513 943
e 514 518
e 514 773
e 514 621
e 515 589
e 515 525
e 515 710
e 516 723
e 516 695
e 517 623
e 517 535
e 517 892
e 518 774
e 518 681
e 518 616
e 518 862
e 518 765
e 520 875
e 521 967
e 522 823
e 522 685
e 522 648
e 523 811
e 524 624
e 524 683
e 525 736
e 527 876
e 527 595
e 527 869
e 529 540
e 529 905
e 531 731
e 531 948
e 532 999
e 535 630
e 535 578
e 536 924
e 536 751
e 537 680
e 539 933
e 539 703
e 539 692
e 540 997
e 540 569
e 540 881
e 540 670
e 540 641
e 541 996
e 541 717
e 542 752
e 542 600
e 542 678
e 543 758
e 543 713
e 543 791
e 543 773
e 543 927
e 544 691
e 544 678
e 544 922
e 544 969
e 546 684
e 548 715
e 548 964
e 549 645
e 549 741
e 550 813
e 550 877
e 550 820
e 550 875
e 553 956
e 554 805
e 554 849
e 554 819
e 556 596
e 559 976
e 559 769
e 559 923
e 560 597
e 561 613
e 561 879
e 564 692
e 565 944
e 565 885
e 565 939
e 566 698
e 566 743
e 566 637
e 568 892
e 568 577
e 569 737
e 569 991
e 569 723
e 570 631
e 570 925
e 570 635
e 574 941
e 574 913
e 576 843
e 576 737
e 577 735
e 577 676
e 578 840
e 579 868
e 579 857
e 579 827
e 579 893
e 581 993
e 581 781
e 581 733
e 581 670
e 581 719
e 582 859
e 583 891
e 583 661
e 583 938
e 583 669
e 584 737
e 584 729
e 584 725
e 585 603
e 585 658
e 585 926
e 585 957
e 586 641
e 586 719
e 586 606
e 587 597
e 587 985
e 587 910
e 587 636
e 588 884
e 588 761
e 589 751
e 589 606
e 589 810
e 590 914
e 590 595
e 590 631
e 593 868
e 593 770
e 594 746
e 594 693
e 594 925
e 595 971
e 595 633
e 595 604
e 596 888
e 596 806
e 597 981
e 597 993
e 597 856
e 597 961
e 598 930
e 600 638
e 602 911
e 602 992
e 603 850
e 606 994
e 606 987
e 607 885
e 608 817
e 608 953
e 610 821
e 610 788
e 613 649
e 615 805
e 615 800
e 615 627
e 616 896
e 618 852
e 618 724
e 618 981
e 620 864
e 620 795
e 620 644
e 620 646
e 620 749
e 621 743
e 621 707
e 621 649
e 623 927
e 624 975
e 624 981
e 624 658
e 624 868
e 625 984
e 625 635
e 625 649
e 630 973
e 631 933
e 633 807
e 634 667
e 635 778
e 635 752
e 636 855
e 637 804
e 637 666
e 637 872
e 638 961
e 638 801
e 640 857
e 641 923
e 641 950
e 641 1000
e 643 989
e 645 736
e 645 701
e 646 835
e 646 874
e 648 948
e 649 783
e 649 750
e 649 995
e 650 730
e 650 698
e 650 848
e 650 662
e 656 858
e 656 730
e 658 803
e 658 910
e 660 730
e 661 998
e 663 870
e 664 897
e 664 676
e 664 682
e 667 674
e 668 811
e 668 933
e 669 857
e 670 834
e 671 787
e 671 749
e 671 891
e 671 731
e 671 897
e 673 910
e 673 952
e 673 871
e 673 775
e 674 766
e 674 742
e 675 682
e 675 980
e 676 836
e 676 789
e 676 996
e 679 942
e 681 844
e 681 726
e 686 959
e 686 691
e 689 878
e 689 843
e 690 866
e 690 981
e 691 824
e 691 865
e 692 962
e 693 709
e 695 891
e 695 948
e 697 710
e 698 944
e 700 790
e 700 938
e 700 771
e 701 947
e 703 959
e 704 812
e 706 759
e 707 926
e 707 896
e 709 819
e 710 854
e 710 835
e 713 865
e 713 714
e 714 808
e 714 811
e 714 931
e 714 799
e 715 765
e 716 978
e 716 789
e 717 914
e 718 982
e 719 956
e 719 904
e 720 954
e 722 921
e 722 819
e 722 791
e 724 817
e 725 948
e 725 884
e 726 907
e 726 877
e 726 915
e 728 803
e 728 868
e 729 898
e 730 953
e 730 821
e 730 922
e 731 968
e 732 983
e 732 970
e 735 949
e 736 786
e 736 938
e 736 839
e 738 950
e 740 764
e 740 882
e 741 941
e 741 949
e 742 822
e 744 826
e 744 749
e 744 995
e 744 889
e 747 772
e 747 749
e 747 787
e 751 812
e 752 805
e 752 874
e 753 909
e 755 871
e 755 930
e 757 989
e 757 860
e 757 937
e 758 778
e 759 915
e 762 942
e 762 768
e 763 991
e 764 909
e 764 814
e 765 839
e 766 880
e 767 844
e 768 801
e 769 863
e 769 855
e 770 831
e 771 989
e 771 877
e 772 868
e 772 942
e 773 968
e 774 985
e 775 854
e 775 925
e 776 962
e 776 867
e 777 995
e 777 818
e 778 879
e 781 960
e 781 808
e 782 915
e 783 987
e 783 994
e 785 919
e 785 849
e 786 834
e 786 989
e 786 881
e 787 989
e 788 930
e 789 952
e 789 877
e 790 951
e 791 816
e 791 985
e 793 948
e 793 991
e 795 888
e 797 904
e 797 856
e 799 822
e 799 921
e 799 874
e 799 836
e 804 997
e 805 976
e 807 826
e 807 997
e 807 983
e 808 871
e 810 914
e 811 941
e 811 836
e 812 968
e 815 885
e 815 985
e 815 831
e 816 840
e 816 866
e 816 844
e 816 823
e 817 957
e 817 867
e 818 843
e 818 876
e 818 969
e 819 905
e 824 919
e 826 856
e 831 997
e 832 927
e 832 996
e 835 960
e 836 850
e 840 955
e 840 854
e 841 997
e 841 998
e 843 937
e 844 932
e 847 939
e 847 956
e 847 978
e 851 925
e 851 881
e 852 931
e 852 885
e 853 913
e 853 872
e 854 984
e 854 898
e 855 987
e 855 976
e 856 896
e 859 927
e 862 990
e 863 962
e 863 885
e 865 894
e 867 905
e 867 964
e 870 881
e 870 994
e 871 981
e 877 991
e 878 880
e 878 941
e 882 996
e 885 905
e 885 1000
e 888 936
e 890 899
e 892 893
e 895 981
e 899 970
e 911 969
e 913 967
e 915 940
e 924 988
e 927 984
e 932 969
e 933 968
e 941 959
e 942 1000
e 947 972
e 947 985
e 956 977
e 970 986
e 981 990
e 982 985
