txt_Ins/graph-1000-696.txt
n 1000
e 0 711
e 0 619
e 0 125
e 0 868
e 0 296
e 0 152
e 1 423
e 1 71
e 1 82
e 3 15
e 3 870
e 3 71
e 3 163
e 3 437
e 3 371
e 5 360
e 5 474
e 5 401
e 5 375
e 10 259
e 10 840
e 10 427
e 10 263
e 10 728
e 10 918
e 11 256
e 11 307
e 11 688
e 11 33
e 11 617
e 11 354
e 12 400
e 12 963
e 12 792
e 12 816
e 12 324
e 12 912
e 14 141
e 14 523
e 14 630
e 15 110
e 15 517
e 15 403
e 15 208
e 15 404
e 16 164
e 16 360
e 16 597
e 16 64
e 17 757
e 17 44
e 17 589
e 18 171
e 18 255
e 18 21
e 20 205
e 20 416
e 20 292
e 20 937
e 21 554
e 21 127
e 21 685
e 21 964
e 22 704
e 22 51
e 22 473
e 22 417
e 23 792
e 23 704
e 23 500
e 24 160
e 24 832
e 24 784
e 27 639
e 27 991
e 27 790
e 28 111
e 28 197
e 28 151
e 31 149
e 31 36
e 31 918
e 31 805
e 31 875
e 32 356
e 32 423
e 32 696
e 33 259
e 33 35
e 33 224
e 33 310
e 33 158
e 34 475
e 34 578
e 34 51
e 34 337
e 35 383
e 35 603
e 35 510
e 35 423
e 35 730
e 35 255
e 35 583
e 36 512
e 36 336
e 36 975
e 36 190
e 37 531
e 37 583
e 37 703
e 37 44
e 38 825
e 38 348
e 38 250
e 38 724
e 38 157
e 38 938
e 39 592
e 39 248
e 39 68
e 39 408
e 39 505
e 39 832
e 39 819
e 40 554
e 40 888
e 40 59
e 41 748
e 41 491
e 41 987
e 41 864
e 41 746
e 41 764
e 41 199
e 44 486
e 44 165
e 44 963
e 44 731
e 44 59
e 44 529
e 45 437
e 45 157
e 45 190
e 45 895
e 45 75
e 46 354
e 46 301
e 46 225
e 46 614
e 46 415
e 48 101
e 48 484
e 48 830
e 48 284
e 50 935
e 50 510
e 50 967
e 51 121
e 51 644
e 52 361
e 52 689
e 52 642
e 52 648
e 52 390
e 53 649
e 53 619
e 53 102
e 53 538
e 53 181
e 53 539
e 53 475
e 55 216
e 55 133
e 55 476
e 56 526
e 56 765
e 56 504
e 56 823
e 57 717
e 57 817
e 57 371
e 57 840
e 58 841
e 58 883
e 58 95
e 59 149
e 59 220
e 59 862
e 63 559
e 63 891
e 63 129
e 63 954
e 64 612
e 64 721
e 64 391
e 64 840
e 65 911
e 65 838
e 65 684
e 65 779
e 66 115
e 66 267
e 66 743
e 66 549
e 66 620
e 66 411
e 66 481
e 67 548
e 67 266
e 67 705
e 67 609
e 67 324
e 67 262
e 67 924
e 67 554
e 67 874
e 68 843
e 68 929
e 68 580
e 68 150
e 69 870
e 69 81
e 69 206
e 69 243
e 69 675
e 69 237
e 69 458
e 70 990
e 70 771
e 70 948
e 70 787
e 71 819
e 71 78
e 71 519
e 72 529
e 72 803
e 72 653
e 72 716
e 72 117
e 73 155
e 73 437
e 73 700
e 73 192
e 75 352
e 75 304
e 75 244
e 76 605
e 76 715
e 76 609
e 76 811
e 77 452
e 77 395
e 77 396
e 77 509
e 78 540
e 78 494
e 78 180
e 78 659
e 78 128
e 78 911
e 80 222
e 80 799
e 80 208
e 80 718
e 80 771
e 80 678
e 81 310
e 81 685
e 81 766
e 81 727
e 81 488
e 82 520
e 82 975
e 82 987
e 82 979
e 82 853
e 82 479
e 82 488
e 82 699
e 83 178
e 83 520
e 83 632
e 84 317
e 84 974
e 84 642
e 84 607
e 86 377
e 86 142
e 86 647
e 86 589
e 86 125
e 86 235
e 87 554
e 87 223
e 87 298
e 87 628
e 88 854
e 88 172
e 88 876
e 88 222
e 91 657
e 91 591
e 91 235
e 91 745
e 92 893
e 92 168
e 92 964
e 92 552
e 93 614
e 93 951
e 93 850
e 93 591
e 93 893
e 94 904
e 94 425
e 94 377
e 94 894
e 94 378
e 94 342
e 94 660
e 94 515
e 94 117
e 95 625
e 95 547
e 95 764
e 96 595
e 96 391
e 96 346
e 96 369
e 98 702
e 98 629
e 98 723
e 100 473
e 100 206
e 100 874
e 100 239
e 100 524
e 100 166
e 101 310
e 101 605
e 101 230
e 102 794
e 102 798
e 102 515
e 102 690
e 102 113
e 102 626
e 103 624
e 103 250
e 103 874
e 103 328
e 105 606
e 105 192
e 105 412
e 105 740
e 105 390
e 105 847
e 105 349
e 107 313
e 107 943
e 107 724
e 108 797
e 108 585
e 108 812
e 108 367
e 108 111
e 108 356
e 109 470
e 109 761
e 109 240
e 109 694
e 109 432
e 110 394
e 110 986
e 110 402
e 110 313
e 110 178
e 111 786
e 111 325
e 111 643
e 111 417
e 113 853
e 113 235
e 113 705
e 114 916
e 114 766
e 114 669
e 114 825
e 114 144
e 114 212
e 114 981
e 114 524
e 115 857
e 115 190
e 115 415
e 115 179
e 115 155
e 116 384
e 116 489
e 116 162
e 117 327
e 117 243
e 118 822
e 118 373
e 118 625
e 118 606
e 118 852
e 119 712
e 119 287
e 119 377
e 119 536
e 119 400
e 119 456
e 119 555
e 119 334
e 119 152
e 120 517
e 120 713
e 120 434
e 120 182
e 120 334
e 121 918
e 121 549
e 121 481
e 121 251
e 121 219
e 123 655
e 123 833
e 123 249
e 123 411
e 123 292
e 123 178
e 123 639
e 124 864
e 124 813
e 124 740
e 124 142
e 124 948
e 124 197
e 124 889
e 125 949
e 125 211
e 125 725
e 125 655
e 126 200
e 126 912
e 126 920
e 126 893
e 126 500
e 126 208
e 127 754
e 127 234
e 127 548
e 128 166
e 128 781
e 128 659
e 128 382
e 129 190
e 129 798
e 129 327
e 131 867
e 131 943
e 131 209
e 131 768
e 133 487
e 133 492
e 133 805
e 133 909
e 133 986
e 136 841
e 136 894
e 136 511
e 136 458
e 137 934
e 137 342
e 137 873
e 137 649
e 139 864
e 139 739
e 139 477
e 139 312
e 140 736
e 140 511
e 140 770
e 140 653
e 141 691
e 141 400
e 141 987
e 141 936
e 141 832
e 141 838
e 141 567
e 141 251
e 142 512
e 142 371
e 143 960
e 143 607
e 143 896
e 143 307
e 144 926
e 144 834
e 144 935
e 149 588
e 149 708
e 149 251
e 150 970
e 150 590
e 150 573
e 150 169
e 150 897
e 151 966
e 151 970
e 151 787
e 151 402
e 151 981
e 152 309
e 152 306
e 152 586
e 152 291
e 152 344
e 152 368
e 152 460
e 154 521
e 154 361
e 154 806
e 155 732
e 155 970
e 155 850
e 157 370
e 157 286
e 157 790
e 158 590
e 158 198
e 158 767
e 158 937
e 159 626
e 159 411
e 159 437
e 159 332
e 159 402
e 160 400
e 160 633
e 160 914
e 160 223
e 161 434
e 161 469
e 161 797
e 161 916
e 161 430
e 161 441
e 161 262
e 162 210
e 162 411
e 162 549
e 163 993
e 163 584
e 163 503
e 164 516
e 164 862
e 164 493
e 165 891
e 165 576
e 166 857
e 166 443
e 166 311
e 166 477
e 166 737
e 166 677
e 166 969
e 166 529
e 168 689
e 168 834
e 168 786
e 168 781
e 168 983
e 168 554
e 169 510
e 169 294
e 170 271
e 170 470
e 170 952
e 170 959
e 171 531
e 171 702
e 171 937
e 171 950
e 171 293
e 172 833
e 172 943
e 173 939
e 173 395
e 173 859
e 173 849
e 174 768
e 174 898
e 174 855
e 174 364
e 178 179
e 178 455
e 179 249
e 180 789
e 180 435
e 180 452
e 180 896
e 180 590
e 181 219
e 181 987
e 181 472
e 181 968
e 182 555
e 182 209
e 184 817
e 184 509
e 184 571
e 184 479
e 185 358
e 185 807
e 185 535
e 185 734
e 185 652
e 186 393
e 186 307
e 186 499
e 186 761
e 186 482
e 186 235
e 187 809
e 187 926
e 187 784
e 190 311
e 190 918
e 190 294
e 191 764
e 191 988
e 191 998
e 192 751
e 192 355
e 192 307
e 192 842
e 192 815
e 193 944
e 193 336
e 193 752
e 195 393
e 195 489
e 195 897
e 195 912
e 195 639
e 195 312
e 195 227
e 196 568
e 196 486
e 196 457
e 196 981
e 197 920
e 198 484
e 198 705
e 198 302
e 199 353
e 199 413
e 199 768
e 199 800
e 200 215
e 200 682
e 205 294
e 205 812
e 206 865
e 208 716
e 208 754
e 209 875
e 209 440
e 209 717
e 209 776
e 210 700
e 210 996
e 211 937
e 211 563
e 211 721
e 212 657
e 212 568
e 212 935
e 212 997
e 215 953
e 215 847
e 215 377
e 216 234
e 216 332
e 216 758
e 217 503
e 217 775
e 217 750
e 218 262
e 218 320
e 218 492
e 218 892
e 218 553
e 218 513
e 218 383
e 219 660
e 219 831
e 219 624
e 219 999
e 220 383
e 220 796
e 220 335
e 220 577
e 221 328
e 221 304
e 221 310
e 221 432
e 221 774
e 222 355
e 222 433
e 222 669
e 223 652
e 223 669
e 223 899
e 224 714
e 224 496
e 224 690
e 224 632
e 224 261
e 225 920
e 225 943
e 225 367
e 225 632
e 226 897
e 226 437
e 226 368
e 226 786
e 226 359
e 227 818
e 227 647
e 227 784
e 227 545
e 227 940
e 228 294
e 228 850
e 228 336
e 229 574
e 229 293
e 229 371
e 229 568
e 230 349
e 230 276
e 230 850
e 233 379
e 233 930
e 233 460
e 233 925
e 233 360
e 233 840
e 234 487
e 234 243
e 234 741
e 235 356
e 235 737
e 235 429
e 235 814
e 237 620
e 237 291
e 238 940
e 238 953
e 238 620
e 238 433
e 239 953
e 239 511
e 239 504
e 239 346
e 240 528
e 240 661
e 240 365
e 240 675
e 241 713
e 241 625
e 241 453
e 241 653
e 242 867
e 242 881
e 242 259
e 242 333
e 242 735
e 242 955
e 243 773
e 243 615
e 244 712
e 244 514
e 244 338
e 245 690
e 245 383
e 245 841
e 245 325
e 246 861
e 246 479
e 246 359
e 246 362
e 246 939
e 246 966
e 247 678
e 247 416
e 247 675
e 248 617
e 248 769
e 248 375
e 248 771
e 249 852
e 249 953
e 249 502
e 249 606
e 250 940
e 250 278
e 250 534
e 251 856
e 251 780
e 251 601
e 251 944
e 255 390
e 255 292
e 255 328
e 255 415
e 255 513
e 256 431
e 256 328
e 256 443
e 256 696
e 256 863
e 257 821
e 257 802
e 257 420
e 258 680
e 258 571
e 258 990
e 258 599
e 259 602
e 259 642
e 259 294
e 260 565
e 260 356
e 260 510
e 260 452
e 261 732
e 261 455
e 261 408
e 262 407
e 262 975
e 263 308
e 263 510
e 263 958
e 263 931
e 264 535
e 264 553
e 264 737
e 264 271
e 264 346
e 264 848
e 266 324
e 266 849
e 267 750
e 267 896
e 267 802
e 267 435
e 270 839
e 270 734
e 270 373
e 270 832
e 270 715
e 270 492
e 271 940
e 271 751
e 273 690
e 273 773
e 273 423
e 273 361
e 273 597
e 274 772
e 274 291
e 274 344
e 274 863
e 275 629
e 275 862
e 275 661
e 276 652
e 276 560
e 278 553
e 278 497
e 278 771
e 278 382
e 278 362
e 279 632
e 279 684
e 279 971
e 279 626
e 279 349
e 279 847
e 281 888
e 281 421
e 281 831
e 281 296
e 284 563
e 284 470
e 285 404
e 285 529
e 285 683
e 285 794
e 285 784
e 286 955
e 286 653
e 286 918
e 286 892
e 286 362
e 287 304
e 287 717
e 287 971
e 288 560
e 288 662
e 288 705
e 289 830
e 289 633
e 289 807
e 289 509
e 289 332
e 289 696
e 289 869
e 291 762
e 291 813
e 291 954
e 291 379
e 292 972
e 292 668
e 293 659
e 293 696
e 294 987
e 294 536
e 295 628
e 295 700
e 295 952
e 296 472
e 296 332
e 296 599
e 296 668
e 298 776
e 298 950
e 298 689
e 299 769
e 299 352
e 299 552
e 300 409
e 300 427
e 300 661
e 300 926
e 301 704
e 301 765
e 302 395
e 302 645
e 302 729
e 302 493
e 302 842
e 304 731
e 304 536
e 306 752
e 306 971
e 307 437
e 307 944
e 307 683
e 307 408
e 307 512
e 307 982
e 307 590
e 308 661
e 308 799
e 309 994
e 309 613
e 309 999
e 309 894
e 310 914
e 311 800
e 311 839
e 311 897
e 312 382
e 312 780
e 313 591
e 313 949
e 313 826
e 314 709
e 314 680
e 314 678
e 315 974
e 315 685
e 315 699
e 315 874
e 315 603
e 315 684
e 317 465
e 317 944
e 317 840
e 318 348
e 318 906
e 318 445
e 320 629
e 320 682
e 321 921
e 321 677
e 321 573
e 324 597
e 324 397
e 324 834
e 325 639
e 326 401
e 326 868
e 326 467
e 326 765
e 327 709
e 328 972
e 328 812
e 328 460
e 328 623
e 328 597
e 329 985
e 329 420
e 329 879
e 330 455
e 330 830
e 330 615
e 332 889
e 332 766
e 332 663
e 332 417
e 332 622
e 333 715
e 333 922
e 333 569
e 334 373
e 334 657
e 335 401
e 335 991
e 335 868
e 335 453
e 335 979
e 335 536
e 335 659
e 335 820
e 336 899
e 336 814
e 337 992
e 337 766
e 338 622
e 338 971
e 339 517
e 339 878
e 339 989
e 339 745
e 339 581
e 339 961
e 340 767
e 340 942
e 340 628
e 340 796
e 342 814
e 342 628
e 342 503
e 344 840
e 345 381
e 345 587
e 345 922
e 345 750
e 345 408
e 345 383
e 346 368
e 348 488
e 348 766
e 348 874
e 348 365
e 349 393
e 349 402
e 349 968
e 352 697
e 352 489
e 353 489
e 353 407
e 354 711
e 354 936
e 354 696
e 355 669
e 355 523
e 355 586
e 356 851
e 356 635
e 356 494
e 356 468
e 356 775
e 358 644
e 358 883
e 358 514
e 358 728
e 358 565
e 359 779
e 359 908
e 359 407
e 359 998
e 359 867
e 360 445
e 360 663
e 361 792
e 361 613
e 361 522
e 362 754
e 362 991
e 364 487
e 364 452
e 364 457
e 365 575
e 365 519
e 365 367
e 365 987
e 365 780
e 367 470
e 367 976
e 368 925
e 369 403
e 369 968
e 370 545
e 370 473
e 371 752
e 371 760
e 371 552
e 373 548
e 373 932
e 373 923
e 375 468
e 376 407
e 376 416
e 376 431
e 378 742
e 378 981
e 378 549
e 379 503
e 379 670
e 379 665
e 381 976
e 381 468
e 381 990
e 382 938
e 382 508
e 383 967
e 383 752
e 383 846
e 384 731
e 384 629
e 385 514
e 385 987
e 385 964
e 390 775
e 390 694
e 390 988
e 391 833
e 391 473
e 392 592
e 392 666
e 392 894
e 393 817
e 394 995
e 394 765
e 394 760
e 395 986
e 396 401
e 396 796
e 397 979
e 397 702
e 397 448
e 400 974
e 400 619
e 400 880
e 400 734
e 400 662
e 400 774
e 401 847
e 402 916
e 402 684
e 402 769
e 402 422
e 402 675
e 403 581
e 403 889
e 403 463
e 404 849
e 404 719
e 404 704
e 407 816
e 408 463
e 408 878
e 408 605
e 409 975
e 409 445
e 411 998
e 411 870
e 412 862
e 412 960
e 413 873
e 413 954
e 415 464
e 415 430
e 415 911
e 415 487
e 415 940
e 416 807
e 416 831
e 416 708
e 417 681
e 417 475
e 420 431
e 420 495
e 420 677
e 420 449
e 420 574
e 420 841
e 421 679
e 421 574
e 421 929
e 421 685
e 422 659
e 422 858
e 422 645
e 423 939
e 423 453
e 423 949
e 424 858
e 424 469
e 424 756
e 425 674
e 425 762
e 427 929
e 427 711
e 427 939
e 429 888
e 429 458
e 430 946
e 432 743
e 432 789
e 433 475
e 433 871
e 434 563
e 434 834
e 435 477
e 435 470
e 435 545
e 435 826
e 437 803
e 437 857
e 437 920
e 437 849
e 440 691
e 440 528
e 441 846
e 441 906
e 441 942
e 441 765
e 441 990
e 441 949
e 443 890
e 443 647
e 445 989
e 445 754
e 448 869
e 448 831
e 449 626
e 449 796
e 449 540
e 451 904
e 451 667
e 451 771
e 452 745
e 453 737
e 455 620
e 455 703
e 456 975
e 456 670
e 456 818
e 457 859
e 458 818
e 460 764
e 463 779
e 463 865
e 464 899
e 464 734
e 464 817
e 465 587
e 465 593
e 466 981
e 466 697
e 466 559
e 467 702
e 467 709
e 469 805
e 470 904
e 470 942
e 470 910
e 471 479
e 471 951
e 471 569
e 472 679
e 472 892
e 473 986
e 474 765
e 474 879
e 474 665
e 474 585
e 474 992
e 475 742
e 475 776
e 475 799
e 475 476
e 476 764
e 476 643
e 477 723
e 477 834
e 478 595
e 478 499
e 478 719
e 478 909
e 479 950
e 479 985
e 481 692
e 481 807
e 481 924
e 481 794
e 482 756
e 482 568
e 484 815
e 484 996
e 486 522
e 486 850
e 486 503
e 486 530
e 487 762
e 488 613
e 489 934
e 489 571
e 491 681
e 491 809
e 491 819
e 491 679
e 491 789
e 491 622
e 491 711
e 492 612
e 493 574
e 493 786
e 493 586
e 494 956
e 495 573
e 495 936
e 496 964
e 496 934
e 497 722
e 497 612
e 497 749
e 497 903
e 499 620
e 500 806
e 502 633
e 502 771
e 504 977
e 505 573
e 505 855
e 505 939
e 505 606
e 508 657
e 508 749
e 508 815
e 508 805
e 510 831
e 510 797
e 512 913
e 512 634
e 512 942
e 513 517
e 513 772
e 513 620
e 514 588
e 514 524
e 514 709
e 515 722
e 515 694
e 516 622
e 516 534
e 516 891
e 517 773
e 517 680
e 517 615
e 517 861
e 517 764
e 519 874
e 520 966
e 521 822
e 521 684
e 521 647
e 522 810
e 523 623
e 523 682
e 524 735
e 526 875
e 526 594
e 526 868
e 528 539
e 528 904
e 530 730
e 530 947
e 531 998
e 534 629
e 534 577
e 535 923
e 535 750
e 536 679
e 538 932
e 538 702
e 538 691
e 539 996
e 539 568
e 539 880
e 539 669
e 539 640
e 540 995
e 540 716
e 541 751
e 541 599
e 541 677
e 542 757
e 542 712
e 542 790
e 542 772
e 542 926
e 543 690
e 543 677
e 543 921
e 543 968
e 545 683
e 547 714
e 547 963
e 548 644
e 548 740
e 549 812
e 549 876
e 549 819
e 549 874
e 552 955
e 553 804
e 553 848
e 553 818
e 555 595
e 558 975
e 558 768
e 558 922
e 559 596
e 560 612
e 560 878
e 563 691
e 564 943
e 564 884
e 564 938
e 565 697
e 565 742
e 565 636
e 567 891
e 567 576
e 568 736
e 568 990
e 568 722
e 569 630
e 569 924
e 569 634
e 573 940
e 573 912
e 575 842
e 575 736
e 576 734
e 576 675
e 577 839
e 578 867
e 578 856
e 578 826
e 578 892
e 580 992
e 580 780
e 580 732
e 580 669
e 580 718
e 581 858
e 582 890
e 582 660
e 582 937
e 582 668
e 583 736
e 583 728
e 583 724
e 584 602
e 584 657
e 584 925
e 584 956
e 585 640
e 585 718
e 585 605
e 586 596
e 586 984
e 586 909
e 586 635
e 587 883
e 587 760
e 588 750
e 588 605
e 588 809
e 589 913
e 589 594
e 589 630
e 592 867
e 592 769
e 593 745
e 593 692
e 593 924
e 594 970
e 594 632
e 594 603
e 595 887
e 595 805
e 596 980
e 596 992
e 596 855
e 596 960
e 597 929
e 599 637
e 601 910
e 601 991
e 602 849
e 605 993
e 605 986
e 606 884
e 607 816
e 607 952
e 609 820
e 609 787
e 612 648
e 614 804
e 614 799
e 614 626
e 615 895
e 617 851
e 617 723
e 617 980
e 619 863
e 619 794
e 619 643
e 619 645
e 619 748
e 620 742
e 620 706
e 620 648
e 622 926
e 623 974
e 623 980
e 623 657
e 623 867
e 624 983
e 624 634
e 624 648
e 629 972
e 630 932
e 632 806
e 633 666
e 634 777
e 634 751
e 635 854
e 636 803
e 636 665
e 636 871
e 637 960
e 637 800
e 639 856
e 640 922
e 640 949
e 640 999
e 642 988
e 644 735
e 644 700
e 645 834
e 645 873
e 647 947
e 648 782
e 648 749
e 648 994
e 649 729
e 649 697
e 649 847
e 649 661
e 655 857
e 655 729
e 657 802
e 657 909
e 659 729
e 660 997
e 662 869
e 663 896
e 663 675
e 663 681
e 666 673
e 667 810
e 667 932
e 668 856
e 669 833
e 670 786
e 670 748
e 670 890
e 670 730
e 670 896
e 672 909
e 672 951
e 672 870
e 672 774
e 673 765
e 673 741
e 674 681
e 674 979
e 675 835
e 675 788
e 675 995
e 678 941
e 680 843
e 680 725
e 685 958
e 685 690
e 688 877
e 688 842
e 689 865
e 689 980
e 690 823
e 690 864
e 691 961
e 692 708
e 694 890
e 694 947
e 696 709
e 697 943
e 699 789
e 699 937
e 699 770
e 700 946
e 702 958
e 703 811
e 705 758
e 706 925
e 706 895
e 708 818
e 709 853
e 709 834
e 712 864
e 712 713
e 713 807
e 713 810
e 713 930
e 713 798
e 714 764
e 715 977
e 715 788
e 716 913
e 717 981
e 718 955
e 718 903
e 719 953
e 721 920
e 721 818
e 721 790
e 723 816
e 724 947
e 724 883
e 725 906
e 725 876
e 725 914
e 727 802
e 727 867
e 728 897
e 729 952
e 729 820
e 729 921
e 730 967
e 731 982
e 731 969
e 734 948
e 735 785
e 735 937
e 735 838
e 737 949
e 739 763
e 739 881
e 740 940
e 740 948
e 741 821
e 743 825
e 743 748
e 743 994
e 743 888
e 746 771
e 746 748
e 746 786
e 750 811
e 751 804
e 751 873
e 752 908
e 754 870
e 754 929
e 756 988
e 756 859
e 756 936
e 757 777
e 758 914
e 761 941
e 761 767
e 762 990
e 763 908
e 763 813
e 764 838
e 765 879
e 766 843
e 767 800
e 768 862
e 768 854
e 769 830
e 770 988
e 770 876
e 771 867
e 771 941
e 772 967
e 773 984
e 774 853
e 774 924
e 775 961
e 775 866
e 776 994
e 776 817
e 777 878
e 780 959
e 780 807
e 781 914
e 782 986
e 782 993
e 784 918
e 784 848
e 785 833
e 785 988
e 785 880
e 786 988
e 787 929
e 788 951
e 788 876
e 789 950
e 790 815
e 790 984
e 792 947
e 792 990
e 794 887
e 796 903
e 796 855
e 798 821
e 798 920
e 798 873
e 798 835
e 803 996
e 804 975
e 806 825
e 806 996
e 806 982
e 807 870
e 809 913
e 810 940
e 810 835
e 811 967
e 814 884
e 814 984
e 814 830
e 815 839
e 815 865
e 815 843
e 815 822
e 816 956
e 816 866
e 817 842
e 817 875
e 817 968
e 818 904
e 823 918
e 825 855
e 830 996
e 831 926
e 831 995
e 834 959
e 835 849
e 839 954
e 839 853
e 840 996
e 840 997
e 842 936
e 843 931
e 846 938
e 846 955
e 846 977
e 850 924
e 850 880
e 851 930
e 851 884
e 852 912
e 852 871
e 853 983
e 853 897
e 854 986
e 854 975
e 855 895
e 858 926
e 861 989
e 862 961
e 862 884
e 864 893
e 866 904
e 866 963
e 869 880
e 869 993
e 870 980
e 876 990
e 877 879
e 877 940
e 881 995
e 884 904
e 884 999
e 887 935
e 889 898
e 891 892
e 894 980
e 898 969
e 910 968
e 912 966
e 914 939
e 923 987
e 926 983
e 931 968
e 932 967
e 940 958
e 941 999
e 946 971
e 946 984
e 955 976
e 969 985
e 980 989
e 981 984
